outputs/case_59.model.txt
broker_fulfilled_fidelity = False
is_notary = False
practice_certificate_held = True
is_agent = True
guarantee_deposit_amount = 500000
fee_disclosure_made = False
liability_insurance = True
guarantee_minimum_amount = 500000
license_permitted = True
bank_as_agent = False
bank_as_broker = False
relevant_insurance_covered = True
within_designated_scope = False
written_analysis_report_provided = False
fee_charged = False
guarantee_insurance = True
broker_exercised_duty_of_care = False
insurance_type = 1
bank_permission_granted = False
is_broker = False
broker_report_and_fee_disclosure_ok = True
violate_related_provisions = False
violation_financial_or_business_management = False
penalty = False
relevant_insurance_type_ok = True
agent_license_and_guarantee = True
bank_permission_ok = True
broker_duty_of_care_and_fidelity_ok = False
violate_business_management_rule = False
violate_financial_management_rule = False
violate_written_report_rule = False